experiments/cvc4_benchmarks/expl/leon/amortize-queue-goal10.smt2.log
14:14:51 [WARN] Collecting statistics
14:14:51 [WARN]  ex is: zero
14:14:51 [WARN]  ex is: (succ zero)
14:14:51 [WARN]  ex is: (succ (succ zero))
14:14:51 [WARN]  ex is: nil
14:14:51 [WARN]  ex is: (cons autovar_Nat_0 nil)
14:14:51 [WARN]  ex is: (cons autovar_Nat_1 (cons autovar_Nat_0 nil))
14:14:51 [WARN]  ex is: (queue autovar_Lst_0 autovar_Lst_1)
14:14:51 [WARN] Proof mode: false
14:14:51 [WARN]  ex is: zero
14:14:51 [WARN]  ex is: (succ zero)
14:14:51 [WARN]  ex is: (succ (succ zero))
14:14:51 [WARN]  ex is: nil
14:14:51 [WARN]  ex is: (cons autovar_Nat_0 nil)
14:14:51 [WARN]  ex is: (cons autovar_Nat_1 (cons autovar_Nat_0 nil))
14:14:51 [WARN]  ex is: (queue autovar_Lst_0 autovar_Lst_1)
14:14:51 [WARN] Proof mode: false
